c 69_3_checker.cnf
c
c field = 69
c formula set type = 3_checker
c
p cnf 4 64
130 
132 
134 
-128 
131 
133 
135 
-129 
130 
132 
134 
-138 
131 
133 
135 
-139 
132 
134 
138 
-130 
133 
135 
139 
-131 
132 
134 
138 
-140 
133 
135 
139 
-141 
134 
138 
140 
-132 
135 
139 
141 
-133 
134 
138 
140 
-142 
135 
139 
141 
-143 
138 
140 
142 
-134 
139 
141 
143 
-135 
138 
140 
142 
-144 
139 
141 
143 
-145 
46 
76 
106 
-16 
47 
77 
107 
-17 
46 
76 
106 
-166 
47 
77 
107 
-167 
76 
106 
166 
-46 
77 
107 
167 
-47 
76 
106 
166 
-196 
77 
107 
167 
-197 
106 
166 
196 
-76 
107 
167 
197 
-77 
106 
166 
196 
-226 
107 
167 
197 
-227 
166 
196 
226 
-106 
167 
197 
227 
-107 
166 
196 
226 
-256 
167 
197 
227 
-257 
40 
72 
104 
-8 
41 
73 
105 
-9 
40 
72 
104 
-168 
41 
73 
105 
-169 
72 
104 
168 
-40 
73 
105 
169 
-41 
72 
104 
168 
-200 
73 
105 
169 
-201 
104 
168 
200 
-72 
105 
169 
201 
-73 
104 
168 
200 
-232 
105 
169 
201 
-233 
168 
200 
232 
-104 
169 
201 
233 
-105 
168 
200 
232 
-264 
169 
201 
233 
-265 
52 
80 
108 
-24 
53 
81 
109 
-25 
52 
80 
108 
-164 
53 
81 
109 
-165 
80 
108 
164 
-52 
81 
109 
165 
-53 
80 
108 
164 
-192 
81 
109 
165 
-193 
108 
164 
192 
-80 
109 
165 
193 
-81 
108 
164 
192 
-220 
109 
165 
193 
-221 
164 
192 
220 
-108 
165 
193 
221 
-109 
164 
192 
220 
-248 
165 
193 
221 
-249 
